
******************************************************************************
This program contains Ipopt, a library for large-scale nonlinear optimization.
 Ipopt is released as open source code under the Eclipse Public License (EPL).
         For more information visit http://projects.coin-or.org/Ipopt
******************************************************************************

This is Ipopt version 3.12.6, running with linear solver ma57.

Number of nonzeros in equality constraint Jacobian...:        0
Number of nonzeros in inequality constraint Jacobian.:        0
Number of nonzeros in Lagrangian Hessian.............:       36

Total number of variables............................:        8
                     variables with only lower bounds:        1
                variables with lower and upper bounds:        0
                     variables with only upper bounds:        0
Total number of equality constraints.................:        0
Total number of inequality constraints...............:        0
        inequality constraints with only lower bounds:        0
   inequality constraints with lower and upper bounds:        0
        inequality constraints with only upper bounds:        0

iter    objective    inf_pr   inf_du lg(mu)  ||d||  lg(rg) alpha_du alpha_pr  ls
   0  2.0843531e+06 0.00e+00 1.00e+02  -1.0 0.00e+00    -  0.00e+00 0.00e+00   0
   1  3.2208076e+04 0.00e+00 2.72e-02  -1.0 3.30e+00  -2.0 9.05e-01 1.00e+00f  1
   2  2.5605150e+04 0.00e+00 2.07e+00  -3.8 6.95e+00  -2.5 1.00e+00 7.81e-01f  1
   3  1.3128201e+04 0.00e+00 9.38e-02  -3.8 8.64e+00  -3.0 3.96e-02 1.00e+00f  1
   4  1.1641350e+04 0.00e+00 3.97e+00  -3.8 4.01e+01  -3.4 1.00e+00 2.50e-01f  3
   5  9.7531859e+02 0.00e+00 6.74e-02  -3.8 2.78e+01  -3.9 6.48e-01 1.00e+00f  1
   6  7.5123188e+02 0.00e+00 7.33e-01  -3.8 6.67e+00  -3.5 1.00e+00 1.00e+00f  1
   7  5.6834106e+01 0.00e+00 8.71e-04  -3.8 3.09e+00  -4.0 1.00e+00 1.00e+00f  1
   8  3.6347978e-01 0.00e+00 4.05e-04  -5.7 3.43e+01    -  1.00e+00 1.00e+00f  1
   9  2.5329381e-01 0.00e+00 3.48e-06  -5.7 4.11e-02  -4.4 1.00e+00 1.00e+00f  1
iter    objective    inf_pr   inf_du lg(mu)  ||d||  lg(rg) alpha_du alpha_pr  ls
  10  2.4856034e-01 0.00e+00 1.88e-06  -8.6 5.69e-02  -4.9 9.98e-01 1.00e+00f  1
  11  2.4213977e-01 0.00e+00 3.03e-06  -8.6 1.26e-01  -5.4 1.00e+00 1.00e+00f  1
  12  2.2588773e-01 0.00e+00 1.24e-05  -8.6 3.51e-01  -5.9 1.00e+00 1.00e+00f  1
  13  1.8661015e-01 0.00e+00 7.66e-05  -8.6 9.17e-01  -6.3 1.00e+00 1.00e+00f  1
  14  1.2136967e-01 0.00e+00 7.76e-04  -8.6 9.42e+00    -  1.00e+00 1.00e+00f  1
  15  8.8372693e-02 0.00e+00 2.69e-06  -8.6 3.30e+00    -  1.00e+00 1.00e+00f  1
  16  8.5143054e-02 0.00e+00 3.88e-05  -8.6 3.68e+02    -  5.82e-01 7.81e-03f  8
  17  8.1603469e-02 0.00e+00 8.74e-05  -8.6 3.64e+00    -  1.00e+00 1.00e+00f  1
  18  7.5795856e-02 0.00e+00 1.66e-05  -8.6 1.88e+00    -  1.00e+00 1.00e+00f  1
  19  7.4268418e-02 0.00e+00 8.98e-05  -8.6 8.98e+00    -  1.00e+00 5.00e-01f  2
iter    objective    inf_pr   inf_du lg(mu)  ||d||  lg(rg) alpha_du alpha_pr  ls
  20  6.6994588e-02 0.00e+00 9.74e-06  -8.6 1.37e+00    -  1.00e+00 1.00e+00f  1
  21  6.3855952e-02 0.00e+00 4.83e-05  -8.6 1.33e+01    -  1.00e+00 2.50e-01f  3
  22  5.8639464e-02 0.00e+00 2.16e-05  -8.6 2.37e+00    -  1.00e+00 1.00e+00f  1
  23  5.8229046e-02 0.00e+00 7.95e-05  -8.6 4.91e+00    -  1.00e+00 1.00e+00f  1
  24  4.8673003e-02 0.00e+00 4.85e-06  -8.6 9.81e-01    -  1.00e+00 1.00e+00f  1
  25  4.7499940e-02 0.00e+00 5.75e-05  -8.6 1.74e+01    -  1.00e+00 2.50e-01f  3
  26  3.9647303e-02 0.00e+00 5.04e-06  -8.6 1.16e+00    -  1.00e+00 1.00e+00f  1
  27  3.6562731e-02 0.00e+00 2.85e-05  -8.6 1.25e+01    -  1.00e+00 2.50e-01f  3
  28  3.1512480e-02 0.00e+00 1.06e-05  -8.6 1.99e+00    -  1.00e+00 1.00e+00f  1
  29  2.8492382e-02 0.00e+00 1.76e-05  -8.6 4.62e+00    -  1.00e+00 5.00e-01f  2
iter    objective    inf_pr   inf_du lg(mu)  ||d||  lg(rg) alpha_du alpha_pr  ls
  30  2.4192743e-02 0.00e+00 1.40e-05  -8.6 2.49e+00    -  1.00e+00 1.00e+00f  1
  31  2.0261609e-02 0.00e+00 1.38e-05  -8.6 2.60e+00    -  1.00e+00 1.00e+00f  1
  32  1.6394564e-02 0.00e+00 8.95e-06  -8.6 2.16e+00    -  1.00e+00 1.00e+00f  1
  33  1.3326930e-02 0.00e+00 1.21e-05  -8.6 2.68e+00    -  1.00e+00 1.00e+00f  1
  34  9.9551164e-03 0.00e+00 4.02e-06  -8.6 1.53e+00    -  1.00e+00 1.00e+00f  1
  35  9.7528516e-03 0.00e+00 1.57e-05  -8.6 3.42e+00    -  1.00e+00 1.00e+00f  1
  36  5.0074886e-03 0.00e+00 8.59e-07  -8.6 5.49e-01    -  1.00e+00 1.00e+00f  1
  37  3.8279415e-03 0.00e+00 2.99e-06  -8.6 5.86e+00    -  1.00e+00 2.50e-01f  3
  38  2.6274136e-03 0.00e+00 3.99e-06  -8.6 1.82e+00    -  1.00e+00 1.00e+00f  1
  39  1.6676293e-03 0.00e+00 1.23e-06  -8.6 9.62e-01    -  1.00e+00 1.00e+00f  1
iter    objective    inf_pr   inf_du lg(mu)  ||d||  lg(rg) alpha_du alpha_pr  ls
  40  1.2711764e-03 0.00e+00 3.14e-06  -8.6 1.58e+00    -  1.00e+00 1.00e+00f  1
  41  9.1924250e-04 0.00e+00 2.28e-07  -8.6 3.88e-01    -  1.00e+00 1.00e+00f  1
  42  8.5459010e-04 0.00e+00 8.23e-07  -8.6 7.98e-01    -  1.00e+00 1.00e+00f  1
  43  8.3534810e-04 0.00e+00 6.93e-09  -8.6 6.26e-02    -  1.00e+00 1.00e+00f  1
  44  8.3523225e-04 0.00e+00 1.47e-09  -9.6 3.34e-02    -  1.00e+00 1.00e+00f  1
  45  8.3523221e-04 0.00e+00 2.42e-14  -9.6 1.09e-04    -  1.00e+00 1.00e+00f  1

Number of Iterations....: 45

                                   (scaled)                 (unscaled)
Objective...............:   2.4810388856933909e-08    8.3523220634050121e-04
Dual infeasibility......:   2.4204320874139336e-14    8.1482916060910101e-10
Constraint violation....:   0.0000000000000000e+00    0.0000000000000000e+00
Complementarity.........:   2.7004345623002141e-10    9.0909091774182261e-06
Overall NLP error.......:   2.7004345623002141e-10    9.0909091774182261e-06


Number of objective function evaluations             = 97
Number of objective gradient evaluations             = 46
Number of equality constraint evaluations            = 0
Number of inequality constraint evaluations          = 0
Number of equality constraint Jacobian evaluations   = 0
Number of inequality constraint Jacobian evaluations = 0
Number of Lagrangian Hessian evaluations             = 45
Total CPU secs in IPOPT (w/o function evaluations)   =      0.003
Total CPU secs in NLP function evaluations           =      0.000

EXIT: Optimal Solution Found.

 ** SUBROUTINE CUTEST_csetup: Warning. The problem has no general constraints. 
 ** Other tools may be preferable ** 

************************ CUTEst statistics ************************


 Package used            :  IPOPT
 Problem                 :  PALMER1E  
 # variables             =               8
 # constraints           =               0
 # objective functions   =        0.1440000E+03
 # objective gradients   =        0.4700000E+02
 # objective Hessians    =        0.4600000E+02
 # Hessian-vector prdct  =        0.0000000E+00
 # constraints functions =        0.0000000E+00
 # constraints gradients =        0.0000000E+00
 # constraints Hessians  =        0.0000000E+00
 Exit code               =               0
 Final f                 =   0.8352322E-03
 Set up time             =            0.00 seconds
 Solve time              =            0.06 seconds


******************************************************************

System Time =       0.0160000008 s.
